out/bwp_11_8_1_lp.out
12
3 0    6 3
7 0    10 3
0 4    3 7
4 4    7 7
4 8    7 11
0 0    2 3
8 4    10 7
8 8    10 11
